NAME : single
TYPE : ATSP
DIMENSION : 8
EDGE_WEIGHT_TYPE : EXPLICIT
EDGE_WEIGHT_FORMAT : FULL_MATRIX
EDGE_WEIGHT_SECTION
0 50050 50052 50052 50061 615 568 323 
0 0 137 284 110 50000 50000 50000 
0 137 0 317 247 50000 50000 50000 
0 284 317 0 357 50000 50000 50000 
0 110 247 357 0 50000 50000 50000 
0 50000 50000 50000 50000 0 38 259 
0 50000 50000 50000 50000 38 0 222 
0 50000 50000 50000 50000 259 222 0 
EOF